
  22    4
  10   10   10   10

   0   0   0   0   0   3 2 3 6 
  10  10  10  10  10   6 13 12 9 7 5 4 
   9  10  10  10  10   4 13 12 10 8 
   7  10  10  10  10   5 20 16 14 11 10 
   1  10  10  10  10   3 11 10 8 
   3  10  10  10  10   5 21 19 18 16 12 
   7  10  10  10  10   4 21 20 16 11 
   9  10  10  10  10   5 20 19 18 16 15 
   7  10  10  10  10   5 20 19 18 16 15 
   9  10  10  10  10   4 21 19 18 17 
   9  10  10  10  10   3 19 18 15 
  10  10  10  10  10   2 20 15 
   3  10  10  10  10   2 19 15 
  10  10  10  10  10   2 18 15 
   5  10  10  10  10   1 17 
   8  10  10  10  10   1 17 
   1  10  10  10  10   1 22
   8  10  10  10  10   1 22
   2  10  10  10  10   1 22
   3  10  10  10  10   1 22
   4  10  10  10  10   1 22
   0   0   0   0   0   0 
